# Objective value = 9.9999900000000012e+05
C0 0
C1 0
C2 0
C3 0
C4 0
C5 0
C6 0
C7 0
C8 0
C9 0
C10 0
C11 0
C12 0
C13 0
C14 0
C15 0
C16 0
C17 0
C18 0
C19 0
C20 0
C21 0
C22 0
C23 0
C24 0
C25 0
C26 0
C27 0
C28 0
C29 0
C30 0
C31 0
C32 0
C33 0
C34 0
C35 0
C36 0
C37 0
C38 0
C39 0
C40 0
C41 0
C42 0
C43 0
C44 0
C45 1
C46 1
C47 0
C48 1
C49 1
C50 0
C51 0
C52 0
C53 0
C54 0
C55 0
C56 0
C57 0
C58 0
C59 0
C60 0
C61 0
C62 0
C63 0
C64 0
C65 0
C66 0
C67 0
C68 0
C69 0
C70 0
C71 0
C72 0
C73 0
C74 0
C75 0
C76 0
C77 0
C78 0
C79 0
C80 0
C81 0
C82 0
C83 0
C84 0
C85 0
C86 0
C87 0
C88 0
C89 0
C90 0
C91 0
C92 0
C93 0
C94 0
C95 0
C96 0
C97 0
C98 0
C99 0
C100 0
C101 0
C102 0
C103 0
C104 0
C105 0
C106 0
C107 0
C108 0
C109 0
C110 0
C111 0
C112 0
C113 0
C114 0
C115 0
C116 0
C117 0
C118 0
C119 0
C120 0
C121 0
C122 0
C123 0
C124 0
C125 0
C126 0
C127 0
C128 0
C129 0
C130 0
C131 0
C132 0
C133 0
C134 0
C135 0
C136 0
C137 0
C138 0
C139 0
C140 0
C141 0
C142 0
C143 0
C144 0
C145 0
C146 0
C147 0
C148 0
C149 0
C150 0
C151 0
C152 0
C153 0
C154 1
C155 0
C156 1
C157 0
C158 1
C159 1
C160 0
C161 0
C162 0
C163 0
C164 1
C165 1
C166 0
C167 0
C168 1
C169 1
C170 0
C171 0
C172 0
C173 0
C174 0
C175 0
C176 0
C177 0
C178 0
C179 0
C180 0
C181 0
C182 0
C183 0
C184 1
C185 1
C186 1
C187 0
C188 0
C189 1
C190 0
C191 0
C192 0
C193 0
C194 1
C195 1
C196 1
C197 0
C198 1
C199 0
C200 0
C201 0
C202 0
C203 0
C204 0
C205 0
C206 0
C207 0
C208 0
C209 0
C210 0
C211 0
C212 0
C213 0
C214 0
C215 0
C216 0
C217 0
C218 0
C219 0
C220 0
C221 0
C222 0
C223 0
C224 0
C225 0
C226 0
C227 0
C228 0
C229 0
C230 0
C231 0
C232 0
C233 0
C234 0
C235 0
C236 0
C237 0
C238 0
C239 0
C240 0
C241 0
C242 0
C243 0
C244 0
C245 1
C246 1
C247 0
C248 1
C249 1
C250 0
C251 0
C252 0
C253 0
C254 1
C255 0
C256 1
C257 0
C258 1
C259 1
C260 0
C261 0
C262 0
C263 0
C264 1
C265 1
C266 0
C267 0
C268 1
C269 1
C270 0
C271 0
C272 0
C273 0
C274 0
C275 0
C276 0
C277 0
C278 0
C279 0
C280 0
C281 0
C282 0
C283 0
C284 1
C285 1
C286 1
C287 0
C288 0
C289 1
C290 0
C291 0
C292 0
C293 0
C294 1
C295 1
C296 1
C297 0
C298 1
C299 0
C300 0
C301 0
C302 0
C303 0
C304 0
C305 0
C306 0
C307 0
C308 0
C309 0
C310 0
C311 0
C312 0
C313 0
C314 0
C315 0
C316 0
C317 0
C318 0
C319 0
C320 0
C321 0
C322 0
C323 0
C324 0
C325 0
C326 0
C327 0
C328 0
C329 0
C330 0
C331 0
C332 0
C333 0
C334 0
C335 0
C336 0
C337 0
C338 0
C339 0
C340 0
C341 0
C342 0
C343 0
C344 0
C345 0
C346 0
C347 0
C348 0
C349 0
C350 0
C351 0
C352 0
C353 0
C354 1
C355 0
C356 0
C357 0
C358 0
C359 0
C360 0
C361 0
C362 0
C363 0
C364 1
C365 0
C366 0
C367 0
C368 0
C369 0
C370 0
C371 0
C372 0
C373 0
C374 0
C375 0
C376 0
C377 0
C378 0
C379 0
C380 0
C381 0
C382 0
C383 0
C384 1
C385 0
C386 0
C387 0
C388 0
C389 0
C390 0
C391 0
C392 0
C393 0
C394 1
C395 0
C396 0
C397 0
C398 0
C399 0
C400 0
C401 0
C402 0
C403 0
C404 4
C405 0
C406 0
C407 0
C408 0
C409 0
C410 999999
C411 0
C412 134
C413 0
C414 39
C415 0
C416 37
C417 0
C418 2879
C419 0
C420 4576
C421 0
C422 3536
C423 0
C424 999999
C425 0
C426 3910
C427 0
C428 3258
C429 0
C430 0
C431 134
C432 0
C433 999999
C434 0
C435 34
C436 0
C437 132
C438 0
C439 7617
C440 0
C441 5643
C442 0
C443 9189
C444 0
C445 999999
C446 0
C447 7612
C448 0
C449 11356
C450 0
C451 0
C452 39
C453 0
C454 34
C455 0
C456 999999
C457 0
C458 41
C459 0
C460 5500
C461 0
C462 999999
C463 0
C464 999999
C465 0
C466 999999
C467 0
C468 999999
C469 0
C470 6960
C471 0
C472 0
C473 37
C474 0
C475 132
C476 0
C477 41
C478 0
C479 999999
C480 0
C481 3181
C482 0
C483 5552
C484 0
C485 4315
C486 0
C487 999999
C488 0
C489 4772
C490 0
C491 3561
C492 0
C493 0
C494 2879
C495 0
C496 7617
C497 0
C498 5500
C499 0
C500 3181
C501 0
C502 999999
C503 0
C504 1369
C505 0
C506 2175
C507 0
C508 999999
C509 0
C510 1872
C511 0
C512 565
C513 0
C514 0
C515 4576
C516 0
C517 5643
C518 0
C519 999999
C520 0
C521 5552
C522 0
C523 1369
C524 1369
C525 999999
C526 0
C527 999999
C528 0
C529 999999
C530 0
C531 999999
C532 0
C533 1467
C534 0
C535 1369
C536 3536
C537 0
C538 9189
C539 0
C540 999999
C541 0
C542 4315
C543 0
C544 2175
C545 2175
C546 999999
C547 0
C548 999999
C549 0
C550 999999
C551 0
C552 999999
C553 0
C554 2565
C555 0
C556 2175
C557 999999
C558 0
C559 999999
C560 0
C561 999999
C562 0
C563 999999
C564 0
C565 999999
C566 0
C567 999999
C568 0
C569 999999
C570 0
C571 999999
C572 0
C573 999999
C574 0
C575 999999
C576 0
C577 0
C578 3910
C579 0
C580 7612
C581 0
C582 999999
C583 0
C584 4772
C585 0
C586 1872
C587 1872
C588 999999
C589 0
C590 999999
C591 0
C592 999999
C593 0
C594 999999
C595 0
C596 2262
C597 0
C598 1872
C599 3258
C600 0
C601 11356
C602 0
C603 6960
C604 0
C605 3561
C606 0
C607 565
C608 565
C609 1467
C610 0
C611 2565
C612 0
C613 999999
C614 0
C615 2262
C616 0
C617 999999
C618 0
C619 565
C620 999999
C621 0
C622 134
C623 0
C624 39
C625 0
C626 37
C627 0
C628 2879
C629 0
C630 4576
C631 0
C632 3536
C633 0
C634 999999
C635 0
C636 3910
C637 0
C638 3258
C639 0
C640 0
C641 134
C642 0
C643 999999
C644 0
C645 34
C646 0
C647 132
C648 0
C649 7617
C650 0
C651 5643
C652 0
C653 9189
C654 0
C655 999999
C656 0
C657 7612
C658 0
C659 11356
C660 0
C661 0
C662 39
C663 0
C664 34
C665 0
C666 999999
C667 0
C668 41
C669 0
C670 5500
C671 0
C672 999999
C673 0
C674 999999
C675 0
C676 999999
C677 0
C678 999999
C679 0
C680 6960
C681 0
C682 0
C683 37
C684 0
C685 132
C686 0
C687 41
C688 0
C689 999999
C690 0
C691 3181
C692 0
C693 5552
C694 0
C695 4315
C696 0
C697 999999
C698 0
C699 4772
C700 0
C701 3561
C702 0
C703 0
C704 2879
C705 0
C706 7617
C707 0
C708 5500
C709 0
C710 3181
C711 0
C712 999999
C713 0
C714 1369
C715 1369
C716 2175
C717 2175
C718 999999
C719 0
C720 1872
C721 1872
C722 565
C723 565
C724 2175
C725 4576
C726 0
C727 5643
C728 0
C729 999999
C730 0
C731 5552
C732 0
C733 1369
C734 0
C735 999999
C736 0
C737 999999
C738 999999
C739 999999
C740 0
C741 999999
C742 999999
C743 1467
C744 1467
C745 999999
C746 3536
C747 0
C748 9189
C749 0
C750 999999
C751 0
C752 4315
C753 0
C754 2175
C755 0
C756 999999
C757 999999
C758 999999
C759 0
C760 999999
C761 0
C762 999999
C763 999999
C764 2565
C765 2565
C766 999999
C767 999999
C768 0
C769 999999
C770 0
C771 999999
C772 0
C773 999999
C774 0
C775 999999
C776 0
C777 999999
C778 0
C779 999999
C780 0
C781 999999
C782 0
C783 999999
C784 0
C785 999999
C786 0
C787 0
C788 3910
C789 0
C790 7612
C791 0
C792 999999
C793 0
C794 4772
C795 0
C796 1872
C797 0
C798 999999
C799 999999
C800 999999
C801 999999
C802 999999
C803 0
C804 999999
C805 0
C806 2262
C807 2262
C808 999999
C809 3258
C810 0
C811 11356
C812 0
C813 6960
C814 0
C815 3561
C816 0
C817 565
C818 0
C819 1467
C820 1467
C821 2565
C822 2565
C823 999999
C824 0
C825 2262
C826 2262
C827 999999
C828 0
C829 2565
C830 999999
